! UKS wB97M-V def2-TZVPD PAL2

* xyzfile 1 2 /temp180/bsavoie2/emille35/mlip_alchemy/sn1_scans/ch3cl/uwb97mv-tzvpd/orca.allxyz
