! RKS wB97M-V def2-TZVPD PAL2

* xyzfile 1 1 /temp180/bsavoie2/emille35/mlip_alchemy/sn1_scans/ch3cl_h3o/scan_to_7/uwb97mv-tzvpd/orca.allxyz
