     # Non-bonded interactions (pair-wise)
     pair_coeff           1          1          lj/cut/coul/long      0.015700             2.649533                    
     pair_coeff           1          2          lj/cut/coul/long      0.015700             2.649533                    
     pair_coeff           1          3          lj/cut/coul/long      0.015346             2.624587                    
     pair_coeff           1          4          lj/cut/coul/long      0.015700             2.304755                    
     pair_coeff           1          5          lj/cut/coul/long      0.015700             1.859306                    
     pair_coeff           1          6          lj/cut/coul/long      2.447536             3.100000                    # I-H
     pair_coeff           1          7          lj/cut/coul/long      0.041444             3.024602                    
     pair_coeff           1          8          lj/cut/coul/long      0.036745             3.024602                    
     pair_coeff           1          9          lj/cut/coul/long      0.036745             3.024602                    
     pair_coeff           1          10         lj/cut/coul/long      0.041444             3.024602                    
     pair_coeff           1          11         lj/cut/coul/long      0.036745             3.024602                    
     pair_coeff           1          12         lj/cut/coul/long      0.041444             3.024602                    
     pair_coeff           1          13         lj/cut/coul/long      0.036745             3.024602                    
     pair_coeff           1          14         lj/cut/coul/long      0.036745             3.024602                    
     pair_coeff           1          15         lj/cut/coul/long      0.036745             3.024602                    
     pair_coeff           1          16         lj/cut/coul/long      0.036745             3.024602                    
     pair_coeff           1          17         lj/cut/coul/long      0.041444             3.024602                    
     pair_coeff           1          18         lj/cut/coul/long      0.036745             3.024602                    
     pair_coeff           1          19         lj/cut/coul/long      0.041444             3.024602                    
     pair_coeff           1          20         lj/cut/coul/long      0.051662             2.949766                    
     pair_coeff           1          21         lj/cut/coul/long      0.596960             2.709990                    # Pb-H, HC, carbon
     pair_coeff           1          22         lj/cut/coul/long      0.051662             2.824772                    
     pair_coeff           2          2          lj/cut/coul/long      0.015700             2.649533                    
     pair_coeff           2          3          lj/cut/coul/long      0.015346             2.624587                    
     pair_coeff           2          4          lj/cut/coul/long      0.015700             2.304755                    
     pair_coeff           2          5          lj/cut/coul/long      0.015700             1.859306                    
     pair_coeff           2          6          lj/cut/coul/long      2.447536             3.100000                    # I-H
     pair_coeff           2          7          lj/cut/coul/long      0.041444             3.024602                    
     pair_coeff           2          8          lj/cut/coul/long      0.036745             3.024602                    
     pair_coeff           2          9          lj/cut/coul/long      0.036745             3.024602                    
     pair_coeff           2          10         lj/cut/coul/long      0.041444             3.024602                    
     pair_coeff           2          11         lj/cut/coul/long      0.036745             3.024602                    
     pair_coeff           2          12         lj/cut/coul/long      0.041444             3.024602                    
     pair_coeff           2          13         lj/cut/coul/long      0.036745             3.024602                    
     pair_coeff           2          14         lj/cut/coul/long      0.036745             3.024602                    
     pair_coeff           2          15         lj/cut/coul/long      0.036745             3.024602                    
     pair_coeff           2          16         lj/cut/coul/long      0.036745             3.024602                    
     pair_coeff           2          17         lj/cut/coul/long      0.041444             3.024602                    
     pair_coeff           2          18         lj/cut/coul/long      0.036745             3.024602                    
     pair_coeff           2          19         lj/cut/coul/long      0.041444             3.024602                    
     pair_coeff           2          20         lj/cut/coul/long      0.051662             2.949766                    
     pair_coeff           2          21         lj/cut/coul/long      0.596960             2.709990                    # Pb-H, HC, carbon
     pair_coeff           2          22         lj/cut/coul/long      0.051662             2.824772                    
     pair_coeff           3          3          lj/cut/coul/long      0.015000             2.599642                    
     pair_coeff           3          4          lj/cut/coul/long      0.015346             2.279809                    
     pair_coeff           3          5          lj/cut/coul/long      0.015346             1.834360                    
     pair_coeff           3          6          lj/cut/coul/long      2.447536             3.100000                    # I-H
     pair_coeff           3          7          lj/cut/coul/long      0.040509             2.999656                    
     pair_coeff           3          8          lj/cut/coul/long      0.035917             2.999656                    
     pair_coeff           3          9          lj/cut/coul/long      0.035917             2.999656                    
     pair_coeff           3          10         lj/cut/coul/long      0.040509             2.999656                    
     pair_coeff           3          11         lj/cut/coul/long      0.035917             2.999656                    
     pair_coeff           3          12         lj/cut/coul/long      0.040509             2.999656                    
     pair_coeff           3          13         lj/cut/coul/long      0.035917             2.999656                    
     pair_coeff           3          14         lj/cut/coul/long      0.035917             2.999656                    
     pair_coeff           3          15         lj/cut/coul/long      0.035917             2.999656                    
     pair_coeff           3          16         lj/cut/coul/long      0.035917             2.999656                    
     pair_coeff           3          17         lj/cut/coul/long      0.040509             2.999656                    
     pair_coeff           3          18         lj/cut/coul/long      0.035917             2.999656                    
     pair_coeff           3          19         lj/cut/coul/long      0.040509             2.999656                    
     pair_coeff           3          20         lj/cut/coul/long      0.050498             2.924821                    
     pair_coeff           3          21         lj/cut/coul/long      0.596960             2.709990                    # Pb-H, HC, carbon
     pair_coeff           3          22         lj/cut/coul/long      0.050498             2.799827                    
     pair_coeff           4          4          lj/cut/coul/long      0.015700             1.959977                    
     pair_coeff           4          5          lj/cut/coul/long      0.015700             1.514528                    
     pair_coeff           4          6          lj/cut/coul/long      2.447536             3.100000                    # I-H
     pair_coeff           4          7          lj/cut/coul/long      0.041444             2.679823                    
     pair_coeff           4          8          lj/cut/coul/long      0.036745             2.679823                    
     pair_coeff           4          9          lj/cut/coul/long      0.036745             2.679823                    
     pair_coeff           4          10         lj/cut/coul/long      0.041444             2.679823                    
     pair_coeff           4          11         lj/cut/coul/long      0.036745             2.679823                    
     pair_coeff           4          12         lj/cut/coul/long      0.041444             2.679823                    
     pair_coeff           4          13         lj/cut/coul/long      0.036745             2.679823                    
     pair_coeff           4          14         lj/cut/coul/long      0.036745             2.679823                    
     pair_coeff           4          15         lj/cut/coul/long      0.036745             2.679823                    
     pair_coeff           4          16         lj/cut/coul/long      0.036745             2.679823                    
     pair_coeff           4          17         lj/cut/coul/long      0.041444             2.679823                    
     pair_coeff           4          18         lj/cut/coul/long      0.036745             2.679823                    
     pair_coeff           4          19         lj/cut/coul/long      0.041444             2.679823                    
     pair_coeff           4          20         lj/cut/coul/long      0.051662             2.604988                    
     pair_coeff           4          21         lj/cut/coul/long      0.596960             2.709990                    # Pb-H, HC, carbon
     pair_coeff           4          22         lj/cut/coul/long      0.051662             2.479995                    
     pair_coeff           5          5          lj/cut/coul/long      0.015700             1.069078                    
     pair_coeff           5          6          lj/cut/coul/long      2.447536             2.750000                    # I-H, HN, nitrogen
     pair_coeff           5          7          lj/cut/coul/long      0.041444             2.234374                    
     pair_coeff           5          8          lj/cut/coul/long      0.036745             2.234374                    
     pair_coeff           5          9          lj/cut/coul/long      0.036745             2.234374                    
     pair_coeff           5          10         lj/cut/coul/long      0.041444             2.234374                    
     pair_coeff           5          11         lj/cut/coul/long      0.036745             2.234374                    
     pair_coeff           5          12         lj/cut/coul/long      0.041444             2.234374                    
     pair_coeff           5          13         lj/cut/coul/long      0.036745             2.234374                    
     pair_coeff           5          14         lj/cut/coul/long      0.036745             2.234374                    
     pair_coeff           5          15         lj/cut/coul/long      0.036745             2.234374                    
     pair_coeff           5          16         lj/cut/coul/long      0.036745             2.234374                    
     pair_coeff           5          17         lj/cut/coul/long      0.041444             2.234374                    
     pair_coeff           5          18         lj/cut/coul/long      0.036745             2.234374                    
     pair_coeff           5          19         lj/cut/coul/long      0.041444             2.234374                    
     pair_coeff           5          20         lj/cut/coul/long      0.051662             2.159539                    
     pair_coeff           5          21         lj/cut/coul/long      0.596960             2.264540                    # # Pb-H, HN, nitrogen
     pair_coeff           5          22         lj/cut/coul/long      0.051662             2.034545                    
     pair_coeff           6          6          buck/coul/long        22793.338580         0.482217             696.949542                  # I-I
     pair_coeff           6          7          buck/coul/long        112936.714213        0.342426             0.000000                    # I-C
     pair_coeff           6          8          buck/coul/long        112936.714213        0.342426             0.000000                    # I-C
     pair_coeff           6          9          buck/coul/long        112936.714213        0.342426             0.000000                    # I-C
     pair_coeff           6          10         buck/coul/long        112936.714213        0.342426             0.000000                    # I-C
     pair_coeff           6          11         buck/coul/long        112936.714213        0.342426             0.000000                    # I-C
     pair_coeff           6          12         buck/coul/long        112936.714213        0.342426             0.000000                    # I-C
     pair_coeff           6          13         buck/coul/long        112936.714213        0.342426             0.000000                    # I-C
     pair_coeff           6          14         buck/coul/long        112936.714213        0.342426             0.000000                    # I-C
     pair_coeff           6          15         buck/coul/long        112936.714213        0.342426             0.000000                    # I-C
     pair_coeff           6          16         buck/coul/long        112936.714213        0.342426             0.000000                    # I-C
     pair_coeff           6          17         buck/coul/long        112936.714213        0.342426             0.000000                    # I-C
     pair_coeff           6          18         buck/coul/long        112936.714213        0.342426             0.000000                    # I-C
     pair_coeff           6          19         buck/coul/long        112936.714213        0.342426             0.000000                    # I-C
     pair_coeff           6          20         buck/coul/long        112936.714213        0.342426             0.000000                    # I-N
     pair_coeff           6          21         buck/coul/long        103496.133010        0.321737             0.000000                    # Pb_I-I
     pair_coeff           6          22         buck/coul/long        112936.714213        0.342426             0.000000                    # I-O
     pair_coeff           7          7          lj/cut/coul/long      0.109400             3.399670                    
     pair_coeff           7          8          lj/cut/coul/long      0.096997             3.399670                    
     pair_coeff           7          9          lj/cut/coul/long      0.096997             3.399670                    
     pair_coeff           7          10         lj/cut/coul/long      0.109400             3.399670                    
     pair_coeff           7          11         lj/cut/coul/long      0.096997             3.399670                    
     pair_coeff           7          12         lj/cut/coul/long      0.109400             3.399670                    
     pair_coeff           7          13         lj/cut/coul/long      0.096997             3.399670                    
     pair_coeff           7          14         lj/cut/coul/long      0.096997             3.399670                    
     pair_coeff           7          15         lj/cut/coul/long      0.096997             3.399670                    
     pair_coeff           7          16         lj/cut/coul/long      0.096997             3.399670                    
     pair_coeff           7          17         lj/cut/coul/long      0.109400             3.399670                    
     pair_coeff           7          18         lj/cut/coul/long      0.096997             3.399670                    
     pair_coeff           7          19         lj/cut/coul/long      0.109400             3.399670                    
     pair_coeff           7          20         lj/cut/coul/long      0.136374             3.324834                    
     pair_coeff           7          21         buck/coul/long        32690390.937995      0.150947             0.000000                    # Pb_I-C
     pair_coeff           7          22         lj/cut/coul/long      0.136374             3.199841                    
     pair_coeff           8          8          lj/cut/coul/long      0.086000             3.399670                    
     pair_coeff           8          9          lj/cut/coul/long      0.086000             3.399670                    
     pair_coeff           8          10         lj/cut/coul/long      0.096997             3.399670                    
     pair_coeff           8          11         lj/cut/coul/long      0.086000             3.399670                    
     pair_coeff           8          12         lj/cut/coul/long      0.096997             3.399670                    
     pair_coeff           8          13         lj/cut/coul/long      0.086000             3.399670                    
     pair_coeff           8          14         lj/cut/coul/long      0.086000             3.399670                    
     pair_coeff           8          15         lj/cut/coul/long      0.086000             3.399670                    
     pair_coeff           8          16         lj/cut/coul/long      0.086000             3.399670                    
     pair_coeff           8          17         lj/cut/coul/long      0.096997             3.399670                    
     pair_coeff           8          18         lj/cut/coul/long      0.086000             3.399670                    
     pair_coeff           8          19         lj/cut/coul/long      0.096997             3.399670                    
     pair_coeff           8          20         lj/cut/coul/long      0.120913             3.324834                    
     pair_coeff           8          21         buck/coul/long        32690390.937995      0.150947             0.000000                    # Pb_I-C
     pair_coeff           8          22         lj/cut/coul/long      0.120913             3.199841                    
     pair_coeff           9          9          lj/cut/coul/long      0.086000             3.399670                    
     pair_coeff           9          10         lj/cut/coul/long      0.096997             3.399670                    
     pair_coeff           9          11         lj/cut/coul/long      0.086000             3.399670                    
     pair_coeff           9          12         lj/cut/coul/long      0.096997             3.399670                    
     pair_coeff           9          13         lj/cut/coul/long      0.086000             3.399670                    
     pair_coeff           9          14         lj/cut/coul/long      0.086000             3.399670                    
     pair_coeff           9          15         lj/cut/coul/long      0.086000             3.399670                    
     pair_coeff           9          16         lj/cut/coul/long      0.086000             3.399670                    
     pair_coeff           9          17         lj/cut/coul/long      0.096997             3.399670                    
     pair_coeff           9          18         lj/cut/coul/long      0.086000             3.399670                    
     pair_coeff           9          19         lj/cut/coul/long      0.096997             3.399670                    
     pair_coeff           9          20         lj/cut/coul/long      0.120913             3.324834                    
     pair_coeff           9          21         buck/coul/long        32690390.937995      0.150947             0.000000                    # Pb_I-C
     pair_coeff           9          22         lj/cut/coul/long      0.120913             3.199841                    
     pair_coeff           10         10         lj/cut/coul/long      0.109400             3.399670                    
     pair_coeff           10         11         lj/cut/coul/long      0.096997             3.399670                    
     pair_coeff           10         12         lj/cut/coul/long      0.109400             3.399670                    
     pair_coeff           10         13         lj/cut/coul/long      0.096997             3.399670                    
     pair_coeff           10         14         lj/cut/coul/long      0.096997             3.399670                    
     pair_coeff           10         15         lj/cut/coul/long      0.096997             3.399670                    
     pair_coeff           10         16         lj/cut/coul/long      0.096997             3.399670                    
     pair_coeff           10         17         lj/cut/coul/long      0.109400             3.399670                    
     pair_coeff           10         18         lj/cut/coul/long      0.096997             3.399670                    
     pair_coeff           10         19         lj/cut/coul/long      0.109400             3.399670                    
     pair_coeff           10         20         lj/cut/coul/long      0.136374             3.324834                    
     pair_coeff           10         21         buck/coul/long        32690390.937995      0.150947             0.000000                    # Pb_I-C
     pair_coeff           10         22         lj/cut/coul/long      0.136374             3.199841                    
     pair_coeff           11         11         lj/cut/coul/long      0.086000             3.399670                    
     pair_coeff           11         12         lj/cut/coul/long      0.096997             3.399670                    
     pair_coeff           11         13         lj/cut/coul/long      0.086000             3.399670                    
     pair_coeff           11         14         lj/cut/coul/long      0.086000             3.399670                    
     pair_coeff           11         15         lj/cut/coul/long      0.086000             3.399670                    
     pair_coeff           11         16         lj/cut/coul/long      0.086000             3.399670                    
     pair_coeff           11         17         lj/cut/coul/long      0.096997             3.399670                    
     pair_coeff           11         18         lj/cut/coul/long      0.086000             3.399670                    
     pair_coeff           11         19         lj/cut/coul/long      0.096997             3.399670                    
     pair_coeff           11         20         lj/cut/coul/long      0.120913             3.324834                    
     pair_coeff           11         21         buck/coul/long        32690390.937995      0.150947             0.000000                    # Pb_I-C
     pair_coeff           11         22         lj/cut/coul/long      0.120913             3.199841                    
     pair_coeff           12         12         lj/cut/coul/long      0.109400             3.399670                    
     pair_coeff           12         13         lj/cut/coul/long      0.096997             3.399670                    
     pair_coeff           12         14         lj/cut/coul/long      0.096997             3.399670                    
     pair_coeff           12         15         lj/cut/coul/long      0.096997             3.399670                    
     pair_coeff           12         16         lj/cut/coul/long      0.096997             3.399670                    
     pair_coeff           12         17         lj/cut/coul/long      0.109400             3.399670                    
     pair_coeff           12         18         lj/cut/coul/long      0.096997             3.399670                    
     pair_coeff           12         19         lj/cut/coul/long      0.109400             3.399670                    
     pair_coeff           12         20         lj/cut/coul/long      0.136374             3.324834                    
     pair_coeff           12         21         buck/coul/long        32690390.937995      0.150947             0.000000                    # Pb_I-C
     pair_coeff           12         22         lj/cut/coul/long      0.136374             3.199841                    
     pair_coeff           13         13         lj/cut/coul/long      0.086000             3.399670                    
     pair_coeff           13         14         lj/cut/coul/long      0.086000             3.399670                    
     pair_coeff           13         15         lj/cut/coul/long      0.086000             3.399670                    
     pair_coeff           13         16         lj/cut/coul/long      0.086000             3.399670                    
     pair_coeff           13         17         lj/cut/coul/long      0.096997             3.399670                    
     pair_coeff           13         18         lj/cut/coul/long      0.086000             3.399670                    
     pair_coeff           13         19         lj/cut/coul/long      0.096997             3.399670                    
     pair_coeff           13         20         lj/cut/coul/long      0.120913             3.324834                    
     pair_coeff           13         21         buck/coul/long        32690390.937995      0.150947             0.000000                    # Pb_I-C
     pair_coeff           13         22         lj/cut/coul/long      0.120913             3.199841                    
     pair_coeff           14         14         lj/cut/coul/long      0.086000             3.399670                    
     pair_coeff           14         15         lj/cut/coul/long      0.086000             3.399670                    
     pair_coeff           14         16         lj/cut/coul/long      0.086000             3.399670                    
     pair_coeff           14         17         lj/cut/coul/long      0.096997             3.399670                    
     pair_coeff           14         18         lj/cut/coul/long      0.086000             3.399670                    
     pair_coeff           14         19         lj/cut/coul/long      0.096997             3.399670                    
     pair_coeff           14         20         lj/cut/coul/long      0.120913             3.324834                    
     pair_coeff           14         21         buck/coul/long        32690390.937995      0.150947             0.000000                    # Pb_I-C
     pair_coeff           14         22         lj/cut/coul/long      0.120913             3.199841                    
     pair_coeff           15         15         lj/cut/coul/long      0.086000             3.399670                    
     pair_coeff           15         16         lj/cut/coul/long      0.086000             3.399670                    
     pair_coeff           15         17         lj/cut/coul/long      0.096997             3.399670                    
     pair_coeff           15         18         lj/cut/coul/long      0.086000             3.399670                    
     pair_coeff           15         19         lj/cut/coul/long      0.096997             3.399670                    
     pair_coeff           15         20         lj/cut/coul/long      0.120913             3.324834                    
     pair_coeff           15         21         buck/coul/long        32690390.937995      0.150947             0.000000                    # Pb_I-C
     pair_coeff           15         22         lj/cut/coul/long      0.120913             3.199841                    
     pair_coeff           16         16         lj/cut/coul/long      0.086000             3.399670                    
     pair_coeff           16         17         lj/cut/coul/long      0.096997             3.399670                    
     pair_coeff           16         18         lj/cut/coul/long      0.086000             3.399670                    
     pair_coeff           16         19         lj/cut/coul/long      0.096997             3.399670                    
     pair_coeff           16         20         lj/cut/coul/long      0.120913             3.324834                    
     pair_coeff           16         21         buck/coul/long        32690390.937995      0.150947             0.000000                    # Pb_I-C
     pair_coeff           16         22         lj/cut/coul/long      0.120913             3.199841                    
     pair_coeff           17         17         lj/cut/coul/long      0.109400             3.399670                    
     pair_coeff           17         18         lj/cut/coul/long      0.096997             3.399670                    
     pair_coeff           17         19         lj/cut/coul/long      0.109400             3.399670                    
     pair_coeff           17         20         lj/cut/coul/long      0.136374             3.324834                    
     pair_coeff           17         21         buck/coul/long        32690390.937995      0.150947             0.000000                    # Pb_I-C
     pair_coeff           17         22         lj/cut/coul/long      0.136374             3.199841                    
     pair_coeff           18         18         lj/cut/coul/long      0.086000             3.399670                    
     pair_coeff           18         19         lj/cut/coul/long      0.096997             3.399670                    
     pair_coeff           18         20         lj/cut/coul/long      0.120913             3.324834                    