# Non-bonded interactions (pair-wise)
pair_coeff   1  1  lj/gromacs/coul/gromacs  0.6177100765841173  3.3235142348642364  #TN6a-TN6a
pair_coeff   1  2  lj/gromacs/coul/gromacs  0.5557472791584847  3.933793233980052  #TN6a-TC3
pair_coeff   1  3  lj/gromacs/coul/gromacs  0.7870592709569325  4.262462491001098  #TN6a-SC3
pair_coeff   1  4  lj/gromacs/coul/gromacs  0.5557472791584847  3.8396573672841567  #TN6a-TN2a
pair_coeff   1  5  lj/gromacs/coul/gromacs  0.7130779544230825  3.84171672135398  #TN6a-SN4a
pair_coeff   1  6  lj/gromacs/coul/gromacs  1.2136605247805843  4.016248889650431  #TN6a-SC2
pair_coeff   2  2  lj/gromacs/coul/gromacs  0.5  4.564072233095867  #TC3-TC3
pair_coeff   2  3  lj/gromacs/coul/gromacs  0.7081089736945737  4.8827414901169135  #TC3-SC3
pair_coeff   2  4  lj/gromacs/coul/gromacs  0.5  4.4599363663999725  #TC3-TN2a
pair_coeff   2  5  lj/gromacs/coul/gromacs  0.6415487589096512  4.461995720469796  #TC3-SN4a
pair_coeff   2  6  lj/gromacs/coul/gromacs  1.0919176488082094  4.636527888766246  #TC3-SC2
pair_coeff   3  3  lj/gromacs/coul/gromacs  1.0028366372535649  5.221410747137959  #SC3-SC3
pair_coeff   3  4  lj/gromacs/coul/gromacs  0.7081089736945737  4.788605623421018  #SC3-TN2a
pair_coeff   3  5  lj/gromacs/coul/gromacs  0.9085728664930812  4.790664977490842  #SC3-SN4a
pair_coeff   3  6  lj/gromacs/coul/gromacs  1.5463933713131461  4.965197145787292  #SC3-SC2
pair_coeff   4  4  lj/gromacs/coul/gromacs  0.5  4.375800499704076  #TN2a-TN2a
pair_coeff   4  5  lj/gromacs/coul/gromacs  0.6415487589096512  4.367859853773901  #TN2a-SN4a
pair_coeff   4  6  lj/gromacs/coul/gromacs  1.0919176488082094  4.54239202207035  #TN2a-SC2
pair_coeff   5  5  lj/gromacs/coul/gromacs  0.8231696201170275  4.379919207843724  #SN4a-SN4a
pair_coeff   5  6  lj/gromacs/coul/gromacs  1.4010368248489025  4.544451376140175  #SN4a-SC2
pair_coeff   6  6  lj/gromacs/coul/gromacs  2.3845683035576966  4.728983544436625  #SC2-SC2

# Streching interactions
bond_coeff	1	harmonic	500.147	2.60	#TN6a-SC3
bond_coeff	2	harmonic	486.716	1.60	#TC3-SC3
bond_coeff	3	harmonic	493.062	2.50	#SC3-TN2a
bond_coeff	4	harmonic	493.244	2.00	#TN2a-SN4a
bond_coeff	5	harmonic	459.313	2.10	#SN4a-SC2
bond_coeff	6	harmonic	457.704	2.80	#SC2-SC2

# Bending interactions
angle_coeff	1	harmonic	15051.527	62.00	#SC3-TN6a-SC3
angle_coeff	2	harmonic	13367.815	63.00	#TN6a-SC3-TC3
angle_coeff	3	harmonic	15016.932	104.00	#TN6a-SC3-TN2a
angle_coeff	4	harmonic	10023.933	175.00	#TC3-SC3-TN2a
angle_coeff	5	harmonic	13913.237	59.00	#SC3-TN2a-SC3
angle_coeff	6	harmonic	4666.835	153.00	#SC3-TN2a-SN4a
angle_coeff	7	harmonic	10692.504	93.00	#TN2a-SN4a-SC2
angle_coeff	8	harmonic	0.61	72.00	#SN4a-SC2-SC2
angle_coeff	9	harmonic	0.61	158.00	#SC2-SC2-SC2