# Non-bonded interactions (pair-wise)
pair_coeff	1    	1    	gayberne	1.0    3.0     0.25    0.25    1.20    0.25    0.25    1.20		#B-B
pair_coeff	1    	2    	lj/gromacs/coul/gromacs		0.70 	4.70 		#B-SEO
pair_coeff	1    	3    	lj/gromacs/coul/gromacs		0.84 	4.70 		#B-CLFM
pair_coeff	2    	2    	lj/gromacs/coul/gromacs		0.61 	4.30 		#SEO-SEO
pair_coeff	2    	3    	lj/gromacs/coul/gromacs		0.70 	4.70 		#SEO-CLFM
pair_coeff	3    	3    	lj/gromacs/coul/gromacs		0.84 	4.70 		#CLFM-CLFM

# Stretching interactions
bond_coeff	1    	elel	25.0	4.3	7.5	90.0	7.5	90.0	0.0	2.0	0.0	0.0	#	more	rigid	bond,	less	rigid	dihedral	#B-B
bond_coeff	2    	elsp	1.5	4.7	3.0	90.0	#B-SEO
bond_coeff	3    	harmonic	8.35	3.22	#SEO-SEO

# Bending interactions
angle_coeff	1    	cosine/squared	3.0	90.0	#	more	rigid	#B-B-SEO
angle_coeff	2    	cosine/squared	1.0	160.0	#B-B-B
angle_coeff	3    	cosine/squared	3.0	180.0	#B-SEO-SEO
angle_coeff	4    	cosine/squared	6.0	135.0	#SEO-SEO-SEO

# Dihedral interactions
dihedral_coeff	1    	opls	0.0	0.0	0.0	0.0	#B-B-SEO-SEO
dihedral_coeff	2    	opls	0.0	0.0	0.0	0.0	#B-B-B-SEO
dihedral_coeff	3    	opls	3.0	0.0	0.0	0.0	#SEO-B-B-SEO
dihedral_coeff	4    	opls	0.5	0.6	0.0	0.0	#	less	rigi	#B-B-B-B
dihedral_coeff	5    	opls	0.0	0.0	0.0	0.0	#B-SEO-SEO-SEO
