# Non-bonded interactions (pair-wise)
pair_coeff   1  1  lj/gromacs/coul/gromacs  0.5  3.3140354397311524  #TN6a-TN6a
pair_coeff   1  2  lj/gromacs/coul/gromacs  0.6701912237658733  4.676748051173407  #TN6a-TC3
pair_coeff   1  3  lj/gromacs/coul/gromacs  0.9414700461894271  2.9131136513765457  #TN6a-SC3
pair_coeff   1  4  lj/gromacs/coul/gromacs  0.8122621553530233  3.9969814965202177  #TN6a-TC5
pair_coeff   1  5  lj/gromacs/coul/gromacs  0.7062163614241774  4.90914449789962  #TN6a-TC5e
pair_coeff   1  6  lj/gromacs/coul/gromacs  0.9053170777781484  4.878257579762977  #TN6a-SN3a
pair_coeff   2  2  lj/gromacs/coul/gromacs  0.8983125528255977  6.0594606626156615  #TC3-TC3
pair_coeff   2  3  lj/gromacs/coul/gromacs  1.2619299247892108  4.285826262818801  #TC3-SC3
pair_coeff   2  4  lj/gromacs/coul/gromacs  1.0887419358294972  5.369694107962472  #TC3-TC5
pair_coeff   2  5  lj/gromacs/coul/gromacs  0.9466000150127035  6.281857109341875  #TC3-TC5e
pair_coeff   2  6  lj/gromacs/coul/gromacs  1.2134711205045632  6.250970191205232  #TC3-SN3a
pair_coeff   3  3  lj/gromacs/coul/gromacs  1.7727316957438441  2.532191863021939  #SC3-SC3
pair_coeff   3  4  lj/gromacs/coul/gromacs  1.529440977836269  3.6060597081656107  #SC3-TC5
pair_coeff   3  5  lj/gromacs/coul/gromacs  1.329763100819499  4.518222709545013  #SC3-TC5e
pair_coeff   3  6  lj/gromacs/coul/gromacs  1.7046578220637412  4.48733579140837  #SC3-SN3a
pair_coeff   4  4  lj/gromacs/coul/gromacs  1.3195396180374779  4.699927553309283  #TC5-TC5
pair_coeff   4  5  lj/gromacs/coul/gromacs  1.147265647751944  5.602090554688685  #TC5-TC5e
pair_coeff   4  6  lj/gromacs/coul/gromacs  1.4707096017479588  5.571203636552042  #TC5-SN3a
pair_coeff   5  5  lj/gromacs/coul/gromacs  0.9974830982864087  6.5242535560680865  #TC5e-TC5e
pair_coeff   5  6  lj/gromacs/coul/gromacs  1.2786994652073058  6.483366637931444  #TC5e-SN3a
pair_coeff   6  6  lj/gromacs/coul/gromacs  1.6391980226335319  6.462479719794801  #SN3a-SN3a

# Streching interactions
bond_coeff	1	harmonic	113.278757	2.527484	#TN6a-SC3
bond_coeff	2	harmonic	136.089071	2.417950	#TC3-SC3
bond_coeff	3	harmonic	5.304539	2.829510	#SC3-TC5
bond_coeff	4	harmonic	99.066863	3.365705	#TC5-TC5e
bond_coeff	5	harmonic	68.317726	3.328371	#TC5e-SN3a
bond_coeff	6	harmonic	4.705758	3.039005	#SN3a-SN3a

# Bending interactions
angle_coeff	1	harmonic	307.526292	61.129438	#SC3-TN6a-SC3
angle_coeff	2	harmonic	106.089493	77.454442	#TN6a-SC3-TC3
angle_coeff	3	harmonic	8.638821	137.000000	#TN6a-SC3-TC5
angle_coeff	4	harmonic	12.613458	171.491304	#TC3-SC3-TC5
angle_coeff	5	harmonic	0.000000	50.718797	#SC3-TC5-SC3
angle_coeff	6	harmonic	0.622142	154.957997	#SC3-TC5-TC5e
angle_coeff	7	harmonic	23.261011	170.051957	#TC5-TC5e-SN3a
angle_coeff	8	harmonic	1.215642	69.000000	#TC5e-SN3a-SN3a
angle_coeff	9	harmonic	0.387	143.388739	#SN3a-SN3a-SN3a